units		real
atom_style	atomic

dimension       3
region          box block -25.0 25.0 -25.0 25.0 -25.0 25.0
create_box      1 box
create_atoms 1 random 118 18085 box

mass		1 39.948

##minimize 1.0e-4 1.0e-6 100 1000

pair_style  lj/cut 7.5
pair_coeff 1 1  0.2385 3.4 7.5

delete_atoms overlap 3.4 all all

write_data data_in.Ar nocoeff
